Timesteps: 1
s UNSATISFIABLE
real 0.15
user 0.01
sys 0.00
Timesteps: 2
s UNSATISFIABLE
real 0.18
user 0.02
sys 0.00
Timesteps: 3
s UNSATISFIABLE
real 0.19
user 0.04
sys 0.00
Timesteps: 4
s UNSATISFIABLE
real 0.12
user 0.06
sys 0.00
Timesteps: 5
s UNSATISFIABLE
real 0.20
user 0.13
sys 0.00
Timesteps: 6
s UNSATISFIABLE
real 0.30
user 0.19
sys 0.01
Timesteps: 7
s UNSATISFIABLE
real 0.39
user 0.29
sys 0.01
Timesteps: 8
s UNSATISFIABLE
real 0.81
user 0.69
sys 0.01
Timesteps: 9
s UNSATISFIABLE
real 0.85
user 0.71
sys 0.01
Timesteps: 10
s UNSATISFIABLE
real 2.24
user 2.08
sys 0.02
Timesteps: 11
s UNSATISFIABLE
real 4.16
user 3.97
sys 0.01
Timesteps: 12
s UNSATISFIABLE
real 6.33
user 6.12
sys 0.02
Timesteps: 13
s UNSATISFIABLE
real 9.39
user 9.14
sys 0.02
Timesteps: 14
s UNSATISFIABLE
real 10.63
user 10.33
sys 0.03
Timesteps: 15
s UNSATISFIABLE
real 11.74
user 11.46
sys 0.03
Timesteps: 16
s UNSATISFIABLE
real 10.58
user 10.29
sys 0.03
Timesteps: 17
s UNSATISFIABLE
real 11.19
user 10.86
sys 0.05
Timesteps: 18
s UNSATISFIABLE
real 11.11
user 10.78
sys 0.03
Timesteps: 19
s UNSATISFIABLE
real 12.21
user 11.85
sys 0.05
Timesteps: 20
s UNSATISFIABLE
real 14.39
user 14.02
sys 0.04
Timesteps: 21
s UNSATISFIABLE
real 13.26
user 12.88
sys 0.04
Timesteps: 22
s UNSATISFIABLE
real 17.09
user 16.68
sys 0.05
Timesteps: 23
s UNSATISFIABLE
real 22.34
user 21.88
sys 0.07
Timesteps: 24
s UNSATISFIABLE
real 22.05
user 21.57
sys 0.07
Timesteps: 25
s UNSATISFIABLE
real 24.43
user 23.86
sys 0.07
Timesteps: 26
s UNSATISFIABLE
real 28.14
user 27.61
sys 0.09
Timesteps: 27
s UNSATISFIABLE
real 27.37
user 26.81
sys 0.09
Timesteps: 28
s UNSATISFIABLE
real 28.97
user 28.42
sys 0.09
Timesteps: 29
s UNSATISFIABLE
real 30.39
user 29.82
sys 0.09
Timesteps: 30
s UNSATISFIABLE
real 74.25
user 72.70
sys 0.18
Timesteps: 31
s UNSATISFIABLE
real 72.97
user 71.36
sys 0.20
Timesteps: 32
s UNSATISFIABLE
real 72.08
user 70.49
sys 0.18
Timesteps: 33
s UNSATISFIABLE
real 50.85
user 49.46
sys 0.15
Timesteps: 34
s UNSATISFIABLE
real 58.23
user 57.38
sys 0.15
Timesteps: 35
s UNSATISFIABLE
real 109.15
user 107.30
sys 0.21
Timesteps: 36
s UNSATISFIABLE
real 163.37
user 161.01
sys 0.30
Timesteps: 37
s UNSATISFIABLE
real 163.58
user 161.35
sys 0.26
Timesteps: 38
s UNSATISFIABLE
real 161.57
user 159.27
sys 0.28
Timesteps: 39
s UNSATISFIABLE
real 233.59
user 230.84
sys 0.33
Timesteps: 40
s UNSATISFIABLE
real 340.22
user 336.94
sys 0.42
Timesteps: 41
s UNSATISFIABLE
real 310.98
user 307.79
sys 0.44
Timesteps: 42
s UNSATISFIABLE
real 228.87
user 227.14
sys 0.34
Timesteps: 43
s UNSATISFIABLE
real 356.30
user 353.91
sys 0.45
Timesteps: 44
s UNSATISFIABLE
real 461.88
user 458.98
sys 0.63
Timesteps: 45
